NAME: random-36-32248
TYPE: TSP
COMMENT: size=36 seed=32248
DIMENSION: 74
EDGE_WEIGHT_TYPE: EUC_2D
NODE_COORD_SECTION
+0 136 825
-0 136 825
+1 180 636
-1 413 620
+2 369 605
-2 671 670
+3 4 658
-3 348 337
+4 75 336
-4 812 491
+5 583 803
-5 361 348
+6 191 560
-6 197 655
+7 863 763
-7 724 235
+8 415 306
-8 41 136
+9 345 328
-9 766 301
+10 814 461
-10 776 110
+11 810 839
-11 448 658
+12 394 305
-12 349 909
+13 35 457
-13 169 777
+14 969 899
-14 400 353
+15 125 125
-15 249 616
+16 49 481
-16 742 709
+17 283 818
-17 442 899
+18 535 428
-18 819 753
+19 56 23
-19 21 373
+20 855 138
-20 375 201
+21 863 613
-21 613 921
+22 38 766
-22 184 438
+23 847 592
-23 382 561
+24 232 937
-24 76 147
+25 326 873
-25 494 94
+26 797 986
-26 771 401
+27 514 314
-27 256 178
+28 812 972
-28 430 266
+29 872 532
-29 655 894
+30 182 598
-30 200 64
+31 658 234
-31 509 248
+32 537 296
-32 475 51
+33 680 412
-33 889 167
+34 955 797
-34 463 52
+35 557 18
-35 726 417
+36 45 813
-36 989 640
PRECEDENCE_SECTION
+0 -0
+1 -1
+2 -2
+3 -3
+4 -4
+5 -5
+6 -6
+7 -7
+8 -8
+9 -9
+10 -10
+11 -11
+12 -12
+13 -13
+14 -14
+15 -15
+16 -16
+17 -17
+18 -18
+19 -19
+20 -20
+21 -21
+22 -22
+23 -23
+24 -24
+25 -25
+26 -26
+27 -27
+28 -28
+29 -29
+30 -30
+31 -31
+32 -32
+33 -33
+34 -34
+35 -35
+36 -36
EOF
